p cnf 24 264
-1 -9 0
-1 -10 0
-1 -11 0
-2 -9 0
-2 -10 0
-2 -11 0
-3 -9 0
-3 -10 0
-3 -11 0
-1 -25 0
-1 -26 0
-1 -27 0
-2 -25 0
-2 -26 0
-2 -27 0
-3 -25 0
-3 -26 0
-3 -27 0
-1 -33 0
-1 -34 0
-1 -35 0
-2 -33 0
-2 -34 0
-2 -35 0
-3 -33 0
-3 -34 0
-3 -35 0
-1 -49 0
-1 -50 0
-1 -51 0
-2 -49 0
-2 -50 0
-2 -51 0
-3 -49 0
-3 -50 0
-3 -51 0
-1 -57 0
-1 -58 0
-1 -59 0
-2 -57 0
-2 -58 0
-2 -59 0
-3 -57 0
-3 -58 0
-3 -59 0
-9 -17 0
-9 -18 0
-9 -19 0
-10 -17 0
-10 -18 0
-10 -19 0
-11 -17 0
-11 -18 0
-11 -19 0
-9 -33 0
-9 -34 0
-9 -35 0
-10 -33 0
-10 -34 0
-10 -35 0
-11 -33 0
-11 -34 0
-11 -35 0
-9 -49 0
-9 -50 0
-9 -51 0
-10 -49 0
-10 -50 0
-10 -51 0
-11 -49 0
-11 -50 0
-11 -51 0
-17 -25 0
-17 -26 0
-17 -27 0
-18 -25 0
-18 -26 0
-18 -27 0
-19 -25 0
-19 -26 0
-19 -27 0
-17 -41 0
-17 -42 0
-17 -43 0
-18 -41 0
-18 -42 0
-18 -43 0
-19 -41 0
-19 -42 0
-19 -43 0
-25 -33 0
-25 -34 0
-25 -35 0
-26 -33 0
-26 -34 0
-26 -35 0
-27 -33 0
-27 -34 0
-27 -35 0
-25 -49 0
-25 -50 0
-25 -51 0
-26 -49 0
-26 -50 0
-26 -51 0
-27 -49 0
-27 -50 0
-27 -51 0
-33 -41 0
-33 -42 0
-33 -43 0
-34 -41 0
-34 -42 0
-34 -43 0
-35 -41 0
-35 -42 0
-35 -43 0
-33 -49 0
-33 -50 0
-33 -51 0
-34 -49 0
-34 -50 0
-34 -51 0
-35 -49 0
-35 -50 0
-35 -51 0
-41 -49 0
-41 -50 0
-41 -51 0
-42 -49 0
-42 -50 0
-42 -51 0
-43 -49 0
-43 -50 0
-43 -51 0
-41 -57 0
-41 -58 0
-41 -59 0
-42 -57 0
-42 -58 0
-42 -59 0
-43 -57 0
-43 -58 0
-43 -59 0
-49 -57 0
-49 -58 0
-49 -59 0
-50 -57 0
-50 -58 0
-50 -59 0
-51 -57 0
-51 -58 0
-51 -59 0
-1 -9 0
-1 -17 0
-1 -25 0
-1 -33 0
-1 -41 0
-1 -49 0
-1 -57 0
-9 -17 0
-9 -25 0
-9 -33 0
-9 -41 0
-9 -49 0
-9 -57 0
-17 -25 0
-17 -33 0
-17 -41 0
-17 -49 0
-17 -57 0
-25 -33 0
-25 -41 0
-25 -49 0
-25 -57 0
-33 -41 0
-33 -49 0
-33 -57 0
-41 -49 0
-41 -57 0
-49 -57 0
1 9 17 25 33 41 49 57 0
-2 -10 0
-2 -18 0
-2 -26 0
-2 -34 0
-2 -42 0
-2 -50 0
-2 -58 0
-10 -18 0
-10 -26 0
-10 -34 0
-10 -42 0
-10 -50 0
-10 -58 0
-18 -26 0
-18 -34 0
-18 -42 0
-18 -50 0
-18 -58 0
-26 -34 0
-26 -42 0
-26 -50 0
-26 -58 0
-34 -42 0
-34 -50 0
-34 -58 0
-42 -50 0
-42 -58 0
-50 -58 0
2 10 18 26 34 42 50 58 0
-3 -11 0
-3 -19 0
-3 -27 0
-3 -35 0
-3 -43 0
-3 -51 0
-3 -59 0
-11 -19 0
-11 -27 0
-11 -35 0
-11 -43 0
-11 -51 0
-11 -59 0
-19 -27 0
-19 -35 0
-19 -43 0
-19 -51 0
-19 -59 0
-27 -35 0
-27 -43 0
-27 -51 0
-27 -59 0
-35 -43 0
-35 -51 0
-35 -59 0
-43 -51 0
-43 -59 0
-51 -59 0
3 11 19 27 35 43 51 59 0
-1 -2 0
-1 -3 0
-2 -3 0
-9 -10 0
-9 -11 0
-10 -11 0
-17 -18 0
-17 -19 0
-18 -19 0
-25 -26 0
-25 -27 0
-26 -27 0
-33 -34 0
-33 -35 0
-34 -35 0
-41 -42 0
-41 -43 0
-42 -43 0
-49 -50 0
-49 -51 0
-50 -51 0
-57 -58 0
-57 -59 0
-58 -59 0
